p cnf 51 169
c p weight -19 1 0
c p weight 19 -1 0
c p weight 23 6.12323399573676603586882014729198302312846062338790031898128063403419218957424163818359375E-17 0
c p weight -23 1 0
c p weight 24 1 0
c p weight -24 1 0
c p weight -21 1 0
c p weight 21 -1 0
c p weight -25 1 0
c p weight 25 -1 0
c p weight -27 1 0
c p weight 27 -1 0
c p weight -30 1 0
c p weight 30 -1 0
c p weight -33 1 0
c p weight 33 -1 0
c p weight -36 1 0
c p weight 36 -1 0
c p weight -39 1 0
c p weight 39 -1 0
c p weight -42 1 0
c p weight 42 -1 0
c p weight -45 1 0
c p weight 45 -1 0
c p weight -48 1 0
c p weight 48 -1 0
c p weight 51 0.5 0
c p weight -51 1 0
51 0
-17 0
-15 0
-13 0
-11 0
-9 0
-7 0
-5 0
-3 0
-1 0
-19 17 0
-19 18 0
19 -17 -18 0
20 17 -18 0
20 -17 18 0
-20 17 18 0
-20 -17 -18 0
-21 22 0
-21 20 0
-21 -17 0
21 -22 17 -20 0
22 -17 20 0
-22 17 20 0
-23 20 0
22 -23 -17 0
-22 -23 17 0
22 23 17 -20 0
-22 23 -17 -20 0
-24 20 0
22 -24 17 0
-22 -24 -17 0
22 24 -17 -20 0
-22 24 17 -20 0
-25 22 0
-25 20 0
25 -22 -20 0
26 22 -20 0
26 -22 20 0
-26 22 20 0
-26 -22 -20 0
-27 22 0
-27 16 0
-27 15 -26 0
-27 -15 26 0
27 -22 15 26 -16 0
27 -22 -15 -26 -16 0
29 22 -15 0
29 -22 15 0
-29 22 15 0
-29 -22 -15 0
28 26 -16 0
28 -26 16 0
-28 26 16 0
-28 -26 -16 0
-30 29 0
-30 14 0
-30 13 -16 0
-30 -13 16 0
30 -29 13 16 -14 0
30 -29 -13 -16 -14 0
32 29 -13 0
32 -29 13 0
-32 29 13 0
-32 -29 -13 0
31 16 -14 0
31 -16 14 0
-31 16 14 0
-31 -16 -14 0
-33 32 0
-33 12 0
-33 11 -14 0
-33 -11 14 0
33 -32 11 14 -12 0
33 -32 -11 -14 -12 0
35 32 -11 0
35 -32 11 0
-35 32 11 0
-35 -32 -11 0
34 14 -12 0
34 -14 12 0
-34 14 12 0
-34 -14 -12 0
-36 35 0
-36 10 0
-36 9 -12 0
-36 -9 12 0
36 -35 9 12 -10 0
36 -35 -9 -12 -10 0
38 35 -9 0
38 -35 9 0
-38 35 9 0
-38 -35 -9 0
37 12 -10 0
37 -12 10 0
-37 12 10 0
-37 -12 -10 0
-39 38 0
-39 8 0
-39 7 -10 0
-39 -7 10 0
39 -38 7 10 -8 0
39 -38 -7 -10 -8 0
41 38 -7 0
41 -38 7 0
-41 38 7 0
-41 -38 -7 0
40 10 -8 0
40 -10 8 0
-40 10 8 0
-40 -10 -8 0
-42 41 0
-42 6 0
-42 5 -8 0
-42 -5 8 0
42 -41 5 8 -6 0
42 -41 -5 -8 -6 0
44 41 -5 0
44 -41 5 0
-44 41 5 0
-44 -41 -5 0
43 8 -6 0
43 -8 6 0
-43 8 6 0
-43 -8 -6 0
-45 44 0
-45 4 0
-45 3 -6 0
-45 -3 6 0
45 -44 3 6 -4 0
45 -44 -3 -6 -4 0
47 44 -3 0
47 -44 3 0
-47 44 3 0
-47 -44 -3 0
46 6 -4 0
46 -6 4 0
-46 6 4 0
-46 -6 -4 0
-48 47 0
-48 2 0
-48 1 -4 0
-48 -1 4 0
48 -47 1 4 -2 0
48 -47 -1 -4 -2 0
50 47 -1 0
50 -47 1 0
-50 47 1 0
-50 -47 -1 0
49 4 -2 0
49 -4 2 0
-49 4 2 0
-49 -4 -2 0
-50 0
-47 0
-49 0
-44 0
-46 0
-41 0
-43 0
-38 0
-40 0
-35 0
-37 0
-32 0
-34 0
-29 0
-31 0
-22 0
-28 0
